









































































































14 34 49 37 41 20 62 45 66 
35 24 27 16 31 75 12 76 
10 19 58 57 29 22 63 15 11 
21 56 36 59 67 5 28 55 3 
50 38 9 64 40 2 60 33 
25 74 61 6 7 54 48 23 68 
53 30 71 42 65 26 44 4 
73 69 13 46 72 8 70 39 32 
17 47 52 51 43 1 0 18 
